p cnf 241 960
c p weight 100 0 0
c p weight -100 1 0
c p weight 101 1.0 0
c p weight -101 1 0
96 -95 93 0
96 -95 94 0
-96 95 93 0
-96 95 94 0
96 95 -93 -94 0
-96 -95 -93 -94 0
97 93 -94 0
97 -93 94 0
-97 93 94 0
-97 -93 -94 0
98 99 -96 0
98 -96 97 0
-98 99 96 0
-98 96 97 0
98 -96 -93 0
-98 96 -93 0
98 -99 96 93 -97 0
-98 -99 -96 93 -97 0
99 -93 97 0
-99 93 97 0
-100 97 0
99 -100 -93 0
-99 -100 93 0
99 100 93 -97 0
-99 100 -93 -97 0
-101 97 0
99 -101 93 0
-99 -101 -93 0
99 101 -93 -97 0
-99 101 93 -97 0
102 -98 99 0
102 -98 97 0
-102 98 99 0
-102 98 97 0
102 98 -99 -97 0
-102 -98 -99 -97 0
103 99 -97 0
103 -99 97 0
-103 99 97 0
-103 -99 -97 0
104 -102 99 0
104 -102 92 0
-104 102 99 0
-104 102 92 0
104 -102 91 -103 0
104 -102 -91 103 0
-104 102 91 -103 0
-104 102 -91 103 0
104 102 -99 91 103 -92 0
104 102 -99 -91 -103 -92 0
-104 -102 -99 91 103 -92 0
-104 -102 -99 -91 -103 -92 0
106 99 -91 0
106 -99 91 0
-106 99 91 0
-106 -99 -91 0
105 103 -92 0
105 -103 92 0
-105 103 92 0
-105 -103 -92 0
107 -104 106 0
107 -104 90 0
-107 104 106 0
-107 104 90 0
107 -104 89 -92 0
107 -104 -89 92 0
-107 104 89 -92 0
-107 104 -89 92 0
107 104 -106 89 92 -90 0
107 104 -106 -89 -92 -90 0
-107 -104 -106 89 92 -90 0
-107 -104 -106 -89 -92 -90 0
109 106 -89 0
109 -106 89 0
-109 106 89 0
-109 -106 -89 0
108 92 -90 0
108 -92 90 0
-108 92 90 0
-108 -92 -90 0
110 -107 109 0
110 -107 88 0
-110 107 109 0
-110 107 88 0
110 -107 87 -90 0
110 -107 -87 90 0
-110 107 87 -90 0
-110 107 -87 90 0
110 107 -109 87 90 -88 0
110 107 -109 -87 -90 -88 0
-110 -107 -109 87 90 -88 0
-110 -107 -109 -87 -90 -88 0
112 109 -87 0
112 -109 87 0
-112 109 87 0
-112 -109 -87 0
111 90 -88 0
111 -90 88 0
-111 90 88 0
-111 -90 -88 0
113 -110 112 0
113 -110 86 0
-113 110 112 0
-113 110 86 0
113 -110 85 -88 0
113 -110 -85 88 0
-113 110 85 -88 0
-113 110 -85 88 0
113 110 -112 85 88 -86 0
113 110 -112 -85 -88 -86 0
-113 -110 -112 85 88 -86 0
-113 -110 -112 -85 -88 -86 0
115 112 -85 0
115 -112 85 0
-115 112 85 0
-115 -112 -85 0
114 88 -86 0
114 -88 86 0
-114 88 86 0
-114 -88 -86 0
116 -113 115 0
116 -113 84 0
-116 113 115 0
-116 113 84 0
116 -113 83 -86 0
116 -113 -83 86 0
-116 113 83 -86 0
-116 113 -83 86 0
116 113 -115 83 86 -84 0
116 113 -115 -83 -86 -84 0
-116 -113 -115 83 86 -84 0
-116 -113 -115 -83 -86 -84 0
118 115 -83 0
118 -115 83 0
-118 115 83 0
-118 -115 -83 0
117 86 -84 0
117 -86 84 0
-117 86 84 0
-117 -86 -84 0
119 -116 118 0
119 -116 82 0
-119 116 118 0
-119 116 82 0
119 -116 81 -84 0
119 -116 -81 84 0
-119 116 81 -84 0
-119 116 -81 84 0
119 116 -118 81 84 -82 0
119 116 -118 -81 -84 -82 0
-119 -116 -118 81 84 -82 0
-119 -116 -118 -81 -84 -82 0
121 118 -81 0
121 -118 81 0
-121 118 81 0
-121 -118 -81 0
120 84 -82 0
120 -84 82 0
-120 84 82 0
-120 -84 -82 0
122 -119 121 0
122 -119 80 0
-122 119 121 0
-122 119 80 0
122 -119 79 -82 0
122 -119 -79 82 0
-122 119 79 -82 0
-122 119 -79 82 0
122 119 -121 79 82 -80 0
122 119 -121 -79 -82 -80 0
-122 -119 -121 79 82 -80 0
-122 -119 -121 -79 -82 -80 0
124 121 -79 0
124 -121 79 0
-124 121 79 0
-124 -121 -79 0
123 82 -80 0
123 -82 80 0
-123 82 80 0
-123 -82 -80 0
125 -122 124 0
125 -122 78 0
-125 122 124 0
-125 122 78 0
125 -122 77 -80 0
125 -122 -77 80 0
-125 122 77 -80 0
-125 122 -77 80 0
125 122 -124 77 80 -78 0
125 122 -124 -77 -80 -78 0
-125 -122 -124 77 80 -78 0
-125 -122 -124 -77 -80 -78 0
127 124 -77 0
127 -124 77 0
-127 124 77 0
-127 -124 -77 0
126 80 -78 0
126 -80 78 0
-126 80 78 0
-126 -80 -78 0
128 -125 127 0
128 -125 76 0
-128 125 127 0
-128 125 76 0
128 -125 75 -78 0
128 -125 -75 78 0
-128 125 75 -78 0
-128 125 -75 78 0
128 125 -127 75 78 -76 0
128 125 -127 -75 -78 -76 0
-128 -125 -127 75 78 -76 0
-128 -125 -127 -75 -78 -76 0
130 127 -75 0
130 -127 75 0
-130 127 75 0
-130 -127 -75 0
129 78 -76 0
129 -78 76 0
-129 78 76 0
-129 -78 -76 0
131 -128 130 0
131 -128 74 0
-131 128 130 0
-131 128 74 0
131 -128 73 -76 0
131 -128 -73 76 0
-131 128 73 -76 0
-131 128 -73 76 0
131 128 -130 73 76 -74 0
131 128 -130 -73 -76 -74 0
-131 -128 -130 73 76 -74 0
-131 -128 -130 -73 -76 -74 0
133 130 -73 0
133 -130 73 0
-133 130 73 0
-133 -130 -73 0
132 76 -74 0
132 -76 74 0
-132 76 74 0
-132 -76 -74 0
134 -131 133 0
134 -131 72 0
-134 131 133 0
-134 131 72 0
134 -131 71 -74 0
134 -131 -71 74 0
-134 131 71 -74 0
-134 131 -71 74 0
134 131 -133 71 74 -72 0
134 131 -133 -71 -74 -72 0
-134 -131 -133 71 74 -72 0
-134 -131 -133 -71 -74 -72 0
136 133 -71 0
136 -133 71 0
-136 133 71 0
-136 -133 -71 0
135 74 -72 0
135 -74 72 0
-135 74 72 0
-135 -74 -72 0
137 -134 136 0
137 -134 70 0
-137 134 136 0
-137 134 70 0
137 -134 69 -72 0
137 -134 -69 72 0
-137 134 69 -72 0
-137 134 -69 72 0
137 134 -136 69 72 -70 0
137 134 -136 -69 -72 -70 0
-137 -134 -136 69 72 -70 0
-137 -134 -136 -69 -72 -70 0
139 136 -69 0
139 -136 69 0
-139 136 69 0
-139 -136 -69 0
138 72 -70 0
138 -72 70 0
-138 72 70 0
-138 -72 -70 0
140 -137 139 0
140 -137 68 0
-140 137 139 0
-140 137 68 0
140 -137 67 -70 0
140 -137 -67 70 0
-140 137 67 -70 0
-140 137 -67 70 0
140 137 -139 67 70 -68 0
140 137 -139 -67 -70 -68 0
-140 -137 -139 67 70 -68 0
-140 -137 -139 -67 -70 -68 0
142 139 -67 0
142 -139 67 0
-142 139 67 0
-142 -139 -67 0
141 70 -68 0
141 -70 68 0
-141 70 68 0
-141 -70 -68 0
143 -140 142 0
143 -140 66 0
-143 140 142 0
-143 140 66 0
143 -140 65 -68 0
143 -140 -65 68 0
-143 140 65 -68 0
-143 140 -65 68 0
143 140 -142 65 68 -66 0
143 140 -142 -65 -68 -66 0
-143 -140 -142 65 68 -66 0
-143 -140 -142 -65 -68 -66 0
145 142 -65 0
145 -142 65 0
-145 142 65 0
-145 -142 -65 0
144 68 -66 0
144 -68 66 0
-144 68 66 0
-144 -68 -66 0
146 -143 145 0
146 -143 64 0
-146 143 145 0
-146 143 64 0
146 -143 63 -66 0
146 -143 -63 66 0
-146 143 63 -66 0
-146 143 -63 66 0
146 143 -145 63 66 -64 0
146 143 -145 -63 -66 -64 0
-146 -143 -145 63 66 -64 0
-146 -143 -145 -63 -66 -64 0
148 145 -63 0
148 -145 63 0
-148 145 63 0
-148 -145 -63 0
147 66 -64 0
147 -66 64 0
-147 66 64 0
-147 -66 -64 0
149 -146 148 0
149 -146 62 0
-149 146 148 0
-149 146 62 0
149 -146 61 -64 0
149 -146 -61 64 0
-149 146 61 -64 0
-149 146 -61 64 0
149 146 -148 61 64 -62 0
149 146 -148 -61 -64 -62 0
-149 -146 -148 61 64 -62 0
-149 -146 -148 -61 -64 -62 0
151 148 -61 0
151 -148 61 0
-151 148 61 0
-151 -148 -61 0
150 64 -62 0
150 -64 62 0
-150 64 62 0
-150 -64 -62 0
152 -149 151 0
152 -149 60 0
-152 149 151 0
-152 149 60 0
152 -149 59 -62 0
152 -149 -59 62 0
-152 149 59 -62 0
-152 149 -59 62 0
152 149 -151 59 62 -60 0
152 149 -151 -59 -62 -60 0
-152 -149 -151 59 62 -60 0
-152 -149 -151 -59 -62 -60 0
154 151 -59 0
154 -151 59 0
-154 151 59 0
-154 -151 -59 0
153 62 -60 0
153 -62 60 0
-153 62 60 0
-153 -62 -60 0
155 -152 154 0
155 -152 58 0
-155 152 154 0
-155 152 58 0
155 -152 57 -60 0
155 -152 -57 60 0
-155 152 57 -60 0
-155 152 -57 60 0
155 152 -154 57 60 -58 0
155 152 -154 -57 -60 -58 0
-155 -152 -154 57 60 -58 0
-155 -152 -154 -57 -60 -58 0
157 154 -57 0
157 -154 57 0
-157 154 57 0
-157 -154 -57 0
156 60 -58 0
156 -60 58 0
-156 60 58 0
-156 -60 -58 0
158 -155 157 0
158 -155 56 0
-158 155 157 0
-158 155 56 0
158 -155 55 -58 0
158 -155 -55 58 0
-158 155 55 -58 0
-158 155 -55 58 0
158 155 -157 55 58 -56 0
158 155 -157 -55 -58 -56 0
-158 -155 -157 55 58 -56 0
-158 -155 -157 -55 -58 -56 0
160 157 -55 0
160 -157 55 0
-160 157 55 0
-160 -157 -55 0
159 58 -56 0
159 -58 56 0
-159 58 56 0
-159 -58 -56 0
161 -158 160 0
161 -158 54 0
-161 158 160 0
-161 158 54 0
161 -158 53 -56 0
161 -158 -53 56 0
-161 158 53 -56 0
-161 158 -53 56 0
161 158 -160 53 56 -54 0
161 158 -160 -53 -56 -54 0
-161 -158 -160 53 56 -54 0
-161 -158 -160 -53 -56 -54 0
163 160 -53 0
163 -160 53 0
-163 160 53 0
-163 -160 -53 0
162 56 -54 0
162 -56 54 0
-162 56 54 0
-162 -56 -54 0
164 -161 163 0
164 -161 52 0
-164 161 163 0
-164 161 52 0
164 -161 51 -54 0
164 -161 -51 54 0
-164 161 51 -54 0
-164 161 -51 54 0
164 161 -163 51 54 -52 0
164 161 -163 -51 -54 -52 0
-164 -161 -163 51 54 -52 0
-164 -161 -163 -51 -54 -52 0
166 163 -51 0
166 -163 51 0
-166 163 51 0
-166 -163 -51 0
165 54 -52 0
165 -54 52 0
-165 54 52 0
-165 -54 -52 0
167 -164 166 0
167 -164 50 0
-167 164 166 0
-167 164 50 0
167 -164 49 -52 0
167 -164 -49 52 0
-167 164 49 -52 0
-167 164 -49 52 0
167 164 -166 49 52 -50 0
167 164 -166 -49 -52 -50 0
-167 -164 -166 49 52 -50 0
-167 -164 -166 -49 -52 -50 0
169 166 -49 0
169 -166 49 0
-169 166 49 0
-169 -166 -49 0
168 52 -50 0
168 -52 50 0
-168 52 50 0
-168 -52 -50 0
170 -167 169 0
170 -167 48 0
-170 167 169 0
-170 167 48 0
170 -167 47 -50 0
170 -167 -47 50 0
-170 167 47 -50 0
-170 167 -47 50 0
170 167 -169 47 50 -48 0
170 167 -169 -47 -50 -48 0
-170 -167 -169 47 50 -48 0
-170 -167 -169 -47 -50 -48 0
172 169 -47 0
172 -169 47 0
-172 169 47 0
-172 -169 -47 0
171 50 -48 0
171 -50 48 0
-171 50 48 0
-171 -50 -48 0
173 -170 172 0
173 -170 46 0
-173 170 172 0
-173 170 46 0
173 -170 45 -48 0
173 -170 -45 48 0
-173 170 45 -48 0
-173 170 -45 48 0
173 170 -172 45 48 -46 0
173 170 -172 -45 -48 -46 0
-173 -170 -172 45 48 -46 0
-173 -170 -172 -45 -48 -46 0
175 172 -45 0
175 -172 45 0
-175 172 45 0
-175 -172 -45 0
174 48 -46 0
174 -48 46 0
-174 48 46 0
-174 -48 -46 0
176 -173 175 0
176 -173 44 0
-176 173 175 0
-176 173 44 0
176 -173 43 -46 0
176 -173 -43 46 0
-176 173 43 -46 0
-176 173 -43 46 0
176 173 -175 43 46 -44 0
176 173 -175 -43 -46 -44 0
-176 -173 -175 43 46 -44 0
-176 -173 -175 -43 -46 -44 0
178 175 -43 0
178 -175 43 0
-178 175 43 0
-178 -175 -43 0
177 46 -44 0
177 -46 44 0
-177 46 44 0
-177 -46 -44 0
179 -176 178 0
179 -176 42 0
-179 176 178 0
-179 176 42 0
179 -176 41 -44 0
179 -176 -41 44 0
-179 176 41 -44 0
-179 176 -41 44 0
179 176 -178 41 44 -42 0
179 176 -178 -41 -44 -42 0
-179 -176 -178 41 44 -42 0
-179 -176 -178 -41 -44 -42 0
181 178 -41 0
181 -178 41 0
-181 178 41 0
-181 -178 -41 0
180 44 -42 0
180 -44 42 0
-180 44 42 0
-180 -44 -42 0
182 -179 181 0
182 -179 40 0
-182 179 181 0
-182 179 40 0
182 -179 39 -42 0
182 -179 -39 42 0
-182 179 39 -42 0
-182 179 -39 42 0
182 179 -181 39 42 -40 0
182 179 -181 -39 -42 -40 0
-182 -179 -181 39 42 -40 0
-182 -179 -181 -39 -42 -40 0
184 181 -39 0
184 -181 39 0
-184 181 39 0
-184 -181 -39 0
183 42 -40 0
183 -42 40 0
-183 42 40 0
-183 -42 -40 0
185 -182 184 0
185 -182 38 0
-185 182 184 0
-185 182 38 0
185 -182 37 -40 0
185 -182 -37 40 0
-185 182 37 -40 0
-185 182 -37 40 0
185 182 -184 37 40 -38 0
185 182 -184 -37 -40 -38 0
-185 -182 -184 37 40 -38 0
-185 -182 -184 -37 -40 -38 0
187 184 -37 0
187 -184 37 0
-187 184 37 0
-187 -184 -37 0
186 40 -38 0
186 -40 38 0
-186 40 38 0
-186 -40 -38 0
188 -185 187 0
188 -185 36 0
-188 185 187 0
-188 185 36 0
188 -185 35 -38 0
188 -185 -35 38 0
-188 185 35 -38 0
-188 185 -35 38 0
188 185 -187 35 38 -36 0
188 185 -187 -35 -38 -36 0
-188 -185 -187 35 38 -36 0
-188 -185 -187 -35 -38 -36 0
190 187 -35 0
190 -187 35 0
-190 187 35 0
-190 -187 -35 0
189 38 -36 0
189 -38 36 0
-189 38 36 0
-189 -38 -36 0
191 -188 190 0
191 -188 34 0
-191 188 190 0
-191 188 34 0
191 -188 33 -36 0
191 -188 -33 36 0
-191 188 33 -36 0
-191 188 -33 36 0
191 188 -190 33 36 -34 0
191 188 -190 -33 -36 -34 0
-191 -188 -190 33 36 -34 0
-191 -188 -190 -33 -36 -34 0
193 190 -33 0
193 -190 33 0
-193 190 33 0
-193 -190 -33 0
192 36 -34 0
192 -36 34 0
-192 36 34 0
-192 -36 -34 0
194 -191 193 0
194 -191 32 0
-194 191 193 0
-194 191 32 0
194 -191 31 -34 0
194 -191 -31 34 0
-194 191 31 -34 0
-194 191 -31 34 0
194 191 -193 31 34 -32 0
194 191 -193 -31 -34 -32 0
-194 -191 -193 31 34 -32 0
-194 -191 -193 -31 -34 -32 0
196 193 -31 0
196 -193 31 0
-196 193 31 0
-196 -193 -31 0
195 34 -32 0
195 -34 32 0
-195 34 32 0
-195 -34 -32 0
197 -194 196 0
197 -194 30 0
-197 194 196 0
-197 194 30 0
197 -194 29 -32 0
197 -194 -29 32 0
-197 194 29 -32 0
-197 194 -29 32 0
197 194 -196 29 32 -30 0
197 194 -196 -29 -32 -30 0
-197 -194 -196 29 32 -30 0
-197 -194 -196 -29 -32 -30 0
199 196 -29 0
199 -196 29 0
-199 196 29 0
-199 -196 -29 0
198 32 -30 0
198 -32 30 0
-198 32 30 0
-198 -32 -30 0
200 -197 199 0
200 -197 28 0
-200 197 199 0
-200 197 28 0
200 -197 27 -30 0
200 -197 -27 30 0
-200 197 27 -30 0
-200 197 -27 30 0
200 197 -199 27 30 -28 0
200 197 -199 -27 -30 -28 0
-200 -197 -199 27 30 -28 0
-200 -197 -199 -27 -30 -28 0
202 199 -27 0
202 -199 27 0
-202 199 27 0
-202 -199 -27 0
201 30 -28 0
201 -30 28 0
-201 30 28 0
-201 -30 -28 0
203 -200 202 0
203 -200 26 0
-203 200 202 0
-203 200 26 0
203 -200 25 -28 0
203 -200 -25 28 0
-203 200 25 -28 0
-203 200 -25 28 0
203 200 -202 25 28 -26 0
203 200 -202 -25 -28 -26 0
-203 -200 -202 25 28 -26 0
-203 -200 -202 -25 -28 -26 0
205 202 -25 0
205 -202 25 0
-205 202 25 0
-205 -202 -25 0
204 28 -26 0
204 -28 26 0
-204 28 26 0
-204 -28 -26 0
206 -203 205 0
206 -203 24 0
-206 203 205 0
-206 203 24 0
206 -203 23 -26 0
206 -203 -23 26 0
-206 203 23 -26 0
-206 203 -23 26 0
206 203 -205 23 26 -24 0
206 203 -205 -23 -26 -24 0
-206 -203 -205 23 26 -24 0
-206 -203 -205 -23 -26 -24 0
208 205 -23 0
208 -205 23 0
-208 205 23 0
-208 -205 -23 0
207 26 -24 0
207 -26 24 0
-207 26 24 0
-207 -26 -24 0
209 -206 208 0
209 -206 22 0
-209 206 208 0
-209 206 22 0
209 -206 21 -24 0
209 -206 -21 24 0
-209 206 21 -24 0
-209 206 -21 24 0
209 206 -208 21 24 -22 0
209 206 -208 -21 -24 -22 0
-209 -206 -208 21 24 -22 0
-209 -206 -208 -21 -24 -22 0
211 208 -21 0
211 -208 21 0
-211 208 21 0
-211 -208 -21 0
210 24 -22 0
210 -24 22 0
-210 24 22 0
-210 -24 -22 0
212 -209 211 0
212 -209 20 0
-212 209 211 0
-212 209 20 0
212 -209 19 -22 0
212 -209 -19 22 0
-212 209 19 -22 0
-212 209 -19 22 0
212 209 -211 19 22 -20 0
212 209 -211 -19 -22 -20 0
-212 -209 -211 19 22 -20 0
-212 -209 -211 -19 -22 -20 0
214 211 -19 0
214 -211 19 0
-214 211 19 0
-214 -211 -19 0
213 22 -20 0
213 -22 20 0
-213 22 20 0
-213 -22 -20 0
215 -212 214 0
215 -212 18 0
-215 212 214 0
-215 212 18 0
215 -212 17 -20 0
215 -212 -17 20 0
-215 212 17 -20 0
-215 212 -17 20 0
215 212 -214 17 20 -18 0
215 212 -214 -17 -20 -18 0
-215 -212 -214 17 20 -18 0
-215 -212 -214 -17 -20 -18 0
217 214 -17 0
217 -214 17 0
-217 214 17 0
-217 -214 -17 0
216 20 -18 0
216 -20 18 0
-216 20 18 0
-216 -20 -18 0
218 -215 217 0
218 -215 16 0
-218 215 217 0
-218 215 16 0
218 -215 15 -18 0
218 -215 -15 18 0
-218 215 15 -18 0
-218 215 -15 18 0
218 215 -217 15 18 -16 0
218 215 -217 -15 -18 -16 0
-218 -215 -217 15 18 -16 0
-218 -215 -217 -15 -18 -16 0
220 217 -15 0
220 -217 15 0
-220 217 15 0
-220 -217 -15 0
219 18 -16 0
219 -18 16 0
-219 18 16 0
-219 -18 -16 0
221 -218 220 0
221 -218 14 0
-221 218 220 0
-221 218 14 0
221 -218 13 -16 0
221 -218 -13 16 0
-221 218 13 -16 0
-221 218 -13 16 0
221 218 -220 13 16 -14 0
221 218 -220 -13 -16 -14 0
-221 -218 -220 13 16 -14 0
-221 -218 -220 -13 -16 -14 0
223 220 -13 0
223 -220 13 0
-223 220 13 0
-223 -220 -13 0
222 16 -14 0
222 -16 14 0
-222 16 14 0
-222 -16 -14 0
224 -221 223 0
224 -221 12 0
-224 221 223 0
-224 221 12 0
224 -221 11 -14 0
224 -221 -11 14 0
-224 221 11 -14 0
-224 221 -11 14 0
224 221 -223 11 14 -12 0
224 221 -223 -11 -14 -12 0
-224 -221 -223 11 14 -12 0
-224 -221 -223 -11 -14 -12 0
226 223 -11 0
226 -223 11 0
-226 223 11 0
-226 -223 -11 0
225 14 -12 0
225 -14 12 0
-225 14 12 0
-225 -14 -12 0
227 -224 226 0
227 -224 10 0
-227 224 226 0
-227 224 10 0
227 -224 9 -12 0
227 -224 -9 12 0
-227 224 9 -12 0
-227 224 -9 12 0
227 224 -226 9 12 -10 0
227 224 -226 -9 -12 -10 0
-227 -224 -226 9 12 -10 0
-227 -224 -226 -9 -12 -10 0
229 226 -9 0
229 -226 9 0
-229 226 9 0
-229 -226 -9 0
228 12 -10 0
228 -12 10 0
-228 12 10 0
-228 -12 -10 0
230 -227 229 0
230 -227 8 0
-230 227 229 0
-230 227 8 0
230 -227 7 -10 0
230 -227 -7 10 0
-230 227 7 -10 0
-230 227 -7 10 0
230 227 -229 7 10 -8 0
230 227 -229 -7 -10 -8 0
-230 -227 -229 7 10 -8 0
-230 -227 -229 -7 -10 -8 0
232 229 -7 0
232 -229 7 0
-232 229 7 0
-232 -229 -7 0
231 10 -8 0
231 -10 8 0
-231 10 8 0
-231 -10 -8 0
233 -230 232 0
233 -230 6 0
-233 230 232 0
-233 230 6 0
233 -230 5 -8 0
233 -230 -5 8 0
-233 230 5 -8 0
-233 230 -5 8 0
233 230 -232 5 8 -6 0
233 230 -232 -5 -8 -6 0
-233 -230 -232 5 8 -6 0
-233 -230 -232 -5 -8 -6 0
235 232 -5 0
235 -232 5 0
-235 232 5 0
-235 -232 -5 0
234 8 -6 0
234 -8 6 0
-234 8 6 0
-234 -8 -6 0
236 -233 235 0
236 -233 4 0
-236 233 235 0
-236 233 4 0
236 -233 3 -6 0
236 -233 -3 6 0
-236 233 3 -6 0
-236 233 -3 6 0
236 233 -235 3 6 -4 0
236 233 -235 -3 -6 -4 0
-236 -233 -235 3 6 -4 0
-236 -233 -235 -3 -6 -4 0
238 235 -3 0
238 -235 3 0
-238 235 3 0
-238 -235 -3 0
237 6 -4 0
237 -6 4 0
-237 6 4 0
-237 -6 -4 0
239 -236 238 0
239 -236 2 0
-239 236 238 0
-239 236 2 0
239 -236 1 -4 0
239 -236 -1 4 0
-239 236 1 -4 0
-239 236 -1 4 0
239 236 -238 1 4 -2 0
239 236 -238 -1 -4 -2 0
-239 -236 -238 1 4 -2 0
-239 -236 -238 -1 -4 -2 0
241 238 -1 0
241 -238 1 0
-241 238 1 0
-241 -238 -1 0
240 4 -2 0
240 -4 2 0
-240 4 2 0
-240 -4 -2 0
